p cnf 24 60
a 16 1 0
e 2 3 4 5 6 7 8 9 10 11 12 13 14 15 17 18 19 20 21 22 23 24 0
-3 1 0
-3 2 0
-1 -2 3 0
4 5 -6 0
-4 -5 -6 0
4 -5 6 0
-4 5 6 0
-3 6 -7 0
3 -6 -7 0
-3 -6 7 0
3 6 7 0
8 -2 0
8 5 0
2 -5 -8 0
-7 8 -9 0
7 -8 -9 0
-7 -8 9 0
7 8 9 0
1 2 -11 0
-1 -2 -11 0
1 -2 11 0
-1 2 11 0
-12 11 0
-12 -1 0
-11 1 12 0
13 10 0
13 12 0
-10 -12 -13 0
4 -14 -15 0
-4 14 -15 0
4 14 15 0
-4 -14 15 0
-16 -13 0
-16 15 0
13 -15 16 0
-17 9 0
-17 16 0
-9 -16 17 0
-19 -18 0
-19 -10 0
18 10 19 0
-19 20 -21 0
19 -20 -21 0
-19 -20 21 0
19 20 21 0
-22 -5 0
-22 12 0
5 -12 22 0
23 21 0
23 -22 0
-21 22 -23 0
-24 -17 0
-24 -23 0
17 23 24 0
10 6 17 0
11 -18 -4 -6 0
-23 -2 -6 5 -20 19 4 0
-19 15 6 -14 0
3 9 16 15 -13 0
24 0
